TCS_Benchmarks/redos_fix/regexlib1_output_distinct_4812_4811_0_0.txt
[\w]+
([\w]+)([^\W]([^\W]\.?))([\w]+)
[\w]+